10
2 1 909
3 1 433
3 2 848
4 1 867
4 2 697
4 3 46
5 1 143
5 2 18
5 3 671
5 4 192
6 1 663
6 2 829
6 3 965
6 4 102
6 5 298
7 1 927
7 2 83
7 3 154
7 4 7
7 5 55
7 6 925
8 1 497
8 2 497
8 3 592
8 4 298
8 5 147
8 6 13
8 7 691
9 1 714
9 2 434
9 3 166
9 4 66
9 5 551
9 6 922
9 7 5
9 8 646
